Version identifier: 22.1.0.0 | 2022-03-09 | 1a383f8ce
CPXPARAM_Threads                                 1
CPXPARAM_MIP_Strategy_VariableSelect             3
CPXPARAM_TimeLimit                               600
Tried aggregator 1 time.
MIP Presolve eliminated 203 rows and 1194 columns.
Reduced MIP has 1202 rows, 3582 columns, and 14861 nonzeros.
Reduced MIP has 2787 binaries, 795 generals, 0 SOSs, and 0 indicators.
Presolve time = 0.01 sec. (7.87 ticks)
Found incumbent of value 576.000000 after 0.03 sec. (19.42 ticks)
Probing fixed 0 vars, tightened 5 bounds.
Probing time = 0.03 sec. (21.15 ticks)
Tried aggregator 1 time.
Detecting symmetries...
Reduced MIP has 1202 rows, 3582 columns, and 14861 nonzeros.
Reduced MIP has 2789 binaries, 793 generals, 0 SOSs, and 0 indicators.
Presolve time = 0.01 sec. (8.60 ticks)
Probing time = 0.01 sec. (5.74 ticks)
Clique table members: 10290.
MIP emphasis: balance optimality and feasibility.
MIP search method: dynamic search.
Parallel mode: none, using 1 thread.
Root relaxation solution time = 0.02 sec. (15.95 ticks)

        Nodes                                         Cuts/
   Node  Left     Objective  IInf  Best Integer    Best Bound    ItCnt     Gap

*     0+    0                          576.0000        0.0000           100.00%
      0     0        0.0000   289      576.0000        0.0000      554  100.00%
*     0+    0                            0.0000        0.0000             0.00%
      0     0        cutoff              0.0000        0.0000      554    0.00%
Elapsed time = 0.19 sec. (133.81 ticks, tree = 0.01 MB, solutions = 2)

Root node processing (before b&c):
  Real time             =    0.19 sec. (133.99 ticks)
Sequential b&c:
  Real time             =    0.00 sec. (0.00 ticks)
                          ------------
Total (root+branch&cut) =    0.19 sec. (133.99 ticks)
Primal number of violations:	0
Dual number of violations:	0
Status:	Optimal
Time:	0.19
Sequence:
	9
	10
	9
	10
	9
	10
	0
	10
	9
	5
	9
	9
	10
	9
	10
	9
	9
	1
	9
	10
	9
	10
	9
	5
	8
	10
	9
	5
	0
	5
	9
	5
	0
	5
	9
	5
	0
	5
	4
	1
	0
	5
	9
	5
	0
	4
	5
	0
	5
	4
	10
	4
	1
	0
	5
	4
	10
	4
	5
	0
	5
	9
	5
	0
	5
	9
	5
	9
	5
	0
	4
	5
	0
	5
	4
	1
	0
	5
	9
	5
	0
	9
	5
	0
	4
	1
	4
	5
	9
	5
	4
	1
	0
	1
	4
	4
	1
	4
	1
	4
	1
	4
	1
	4
	1
	4
	9
	10
	9
	5
	9
	1
	4
	1
	4
	1
	4
	1
	4
	1
	4
	0
	1
	9
	1
	9
	5
	9
	1
	9
	1
	4
	0
	9
	1
	4
	1
	4
	5
	9
	5
	4
	9
	5
	0
	5
	9
	1
	9
	5
	9
	5
	0
	5
	4
	1
	0
	1
	9
	1
	9
	5
	9
	10
	9
	1
	9
	5
	0
	1
	9
	1
	9
	5
	9
	10
	0
	9
	10
	0
	5
	9
	5
	0
	10
	9
	1
	4
	0
	5
	4
	3
	0
	4
	5
	9
	5
	4
	1
